NAME          ClpDefau  FREE
ROWS
 N  OBJROW
 L  ZMUNI1_PCT
 L  ZMUNI2_PCT
 L  ZMUNI3_PCT
 L  ZMUNI4_PCT
 L  ZMUNI5_PCT
 L  ZMUNI6_PCT
 L  ZMUNI7_PCT
 L  ZMUNI8_PCT
 L  ZMUNI9_PCT
COLUMNS
    QMUNI1 OBJROW 1.          
    QMUNI1 ZMUNI1_PCT 30213.356   
    QMUNI1 ZMUNI2_PCT 1563.4537   
    QMUNI1 ZMUNI3_PCT 4046.8216   
    QMUNI1 ZMUNI4_PCT 2946.8536   
    QMUNI1 ZMUNI5_PCT 163.4598    
    QMUNI1 ZMUNI6_PCT 319.2901    
    QMUNI1 ZMUNI7_PCT 1592.2547   
    QMUNI1 ZMUNI8_PCT 979.9958    
    QMUNI1 ZMUNI9_PCT  -98.8007   
    QMUNI2 OBJROW 1.          
    QMUNI2 ZMUNI1_PCT 1845.3598   
    QMUNI2 ZMUNI2_PCT 36361.3129  
    QMUNI2 ZMUNI3_PCT 2672.1954   
    QMUNI2 ZMUNI4_PCT 2849.0066   
    QMUNI2 ZMUNI5_PCT 180.0538    
    QMUNI2 ZMUNI6_PCT 256.9198    
    QMUNI2 ZMUNI7_PCT 1237.8693   
    QMUNI2 ZMUNI8_PCT 1370.2393   
    QMUNI2 ZMUNI9_PCT 1273.5367   
    QMUNI3 OBJROW 1.          
    QMUNI3 ZMUNI1_PCT 4137.9929   
    QMUNI3 ZMUNI2_PCT 2560.9971   
    QMUNI3 ZMUNI3_PCT 31672.8592  
    QMUNI3 ZMUNI4_PCT 5100.8224   
    QMUNI3 ZMUNI5_PCT 218.01      
    QMUNI3 ZMUNI6_PCT 362.7777    
    QMUNI3 ZMUNI7_PCT 1705.1697   
    QMUNI3 ZMUNI8_PCT 1356.8879   
    QMUNI3 ZMUNI9_PCT 420.7611    
    QMUNI4 OBJROW 1.          
    QMUNI4 ZMUNI1_PCT 3376.77     
    QMUNI4 ZMUNI2_PCT 2991.1042   
    QMUNI4 ZMUNI3_PCT 5542.1829   
    QMUNI4 ZMUNI4_PCT 113755.2261 
    QMUNI4 ZMUNI5_PCT 552.7497    
    QMUNI4 ZMUNI6_PCT 605.2017    
    QMUNI4 ZMUNI7_PCT 1509.8572   
    QMUNI4 ZMUNI8_PCT 1183.7006   
    QMUNI4 ZMUNI9_PCT 407.7911    
    QMUNI5 OBJROW 1.          
    QMUNI5 ZMUNI1_PCT  -99.3728   
    QMUNI5 ZMUNI2_PCT  -205.2307  
    QMUNI5 ZMUNI3_PCT  -144.7678  
    QMUNI5 ZMUNI4_PCT  -147.0566  
    QMUNI5 ZMUNI5_PCT 37939.4532  
    QMUNI5 ZMUNI6_PCT 2313.2324   
    QMUNI5 ZMUNI7_PCT  -315.4754  
    QMUNI5 ZMUNI8_PCT  -370.7885  
    QMUNI5 ZMUNI9_PCT  -482.1777  
    QMUNI6 OBJROW 1.          
    QMUNI6 ZMUNI1_PCT 391.0065    
    QMUNI6 ZMUNI2_PCT 140.9531    
    QMUNI6 ZMUNI3_PCT 291.0614    
    QMUNI6 ZMUNI4_PCT 219.9173    
    QMUNI6 ZMUNI5_PCT 3217.6972   
    QMUNI6 ZMUNI6_PCT 35039.1387  
    QMUNI6 ZMUNI7_PCT 493.2404    
    QMUNI6 ZMUNI8_PCT 142.2883    
    QMUNI6 ZMUNI9_PCT  -51.4984   
    QMUNI7 OBJROW 1.          
    QMUNI7 ZMUNI1_PCT 1190.1856   
    QMUNI7 ZMUNI2_PCT 449.1807    
    QMUNI7 ZMUNI3_PCT 965.8813    
    QMUNI7 ZMUNI4_PCT 689.5065    
    QMUNI7 ZMUNI5_PCT 461.7691    
    QMUNI7 ZMUNI6_PCT 573.9212    
    QMUNI7 ZMUNI7_PCT 36323.9289  
    QMUNI7 ZMUNI8_PCT 1847.0765   
    QMUNI7 ZMUNI9_PCT  -254.2496  
    QMUNI8 OBJROW 1.          
    QMUNI8 ZMUNI1_PCT 1262.6648   
    QMUNI8 ZMUNI2_PCT 1018.5242   
    QMUNI8 ZMUNI3_PCT 1250.6485   
    QMUNI8 ZMUNI4_PCT 998.3063    
    QMUNI8 ZMUNI5_PCT 380.8976    
    QMUNI8 ZMUNI6_PCT 449.3713    
    QMUNI8 ZMUNI7_PCT 2826.6907   
    QMUNI8 ZMUNI8_PCT 31589.5081  
    QMUNI8 ZMUNI9_PCT 1159.0958   
    QMUNI9 OBJROW 1.          
    QMUNI9 ZMUNI1_PCT 336.4563    
    QMUNI9 ZMUNI2_PCT 651.5503    
    QMUNI9 ZMUNI3_PCT 426.4831    
    QMUNI9 ZMUNI4_PCT 372.5052    
    QMUNI9 ZMUNI5_PCT  -0.7629    
    QMUNI9 ZMUNI6_PCT 8.583       
    QMUNI9 ZMUNI7_PCT 256.7292    
    QMUNI9 ZMUNI8_PCT 771.3318    
    QMUNI9 ZMUNI9_PCT 29388.4277  
RHS
    RHS ZMUNI1_PCT  -0.63961976
    RHS ZMUNI2_PCT -0.001767295
    RHS ZMUNI3_PCT  -0.18648901
    RHS ZMUNI4_PCT 0.927266066 
    RHS ZMUNI5_PCT 0.1808367871
    RHS ZMUNI6_PCT  -0.11713428
    RHS ZMUNI7_PCT 0.2191002481
    RHS ZMUNI8_PCT -0.045640913
    RHS ZMUNI9_PCT  -0.28976638
BOUNDS
 LO BOUND QMUNI1 -0.000585025
 UP BOUND QMUNI1      1.1e+10
 LO BOUND QMUNI2 -0.000411383
 UP BOUND QMUNI2      1.1e+10
 LO BOUND QMUNI3 -0.000483299
 UP BOUND QMUNI3      1.1e+10
 LO BOUND QMUNI4 -0.000170988
 UP BOUND QMUNI4      1.1e+10
 LO BOUND QMUNI5 -0.000285094
 UP BOUND QMUNI5      1.1e+10
 LO BOUND QMUNI6 -0.000419559
 UP BOUND QMUNI6      1.1e+10
 LO BOUND QMUNI7  -7.69127e-5
 UP BOUND QMUNI7      1.1e+10
 LO BOUND QMUNI8 -0.000223899
 UP BOUND QMUNI8      1.1e+10
 LO BOUND QMUNI9 -0.000244494
 UP BOUND QMUNI9      1.1e+10
ENDATA
